p cnf 63 117
1 2 3 0
4 5 6 0
7 8 9 0
10 11 12 0
13 14 15 0
16 17 18 0
19 20 21 0
22 23 24 0
25 26 27 0
-1 -28 0
-1 -29 0
-4 28 0
-4 -29 0
-7 -28 0
-7 29 0
-2 -30 0
-2 -31 0
-5 30 0
-5 -31 0
-8 -30 0
-8 31 0
-3 -32 0
-3 -33 0
-6 32 0
-6 -33 0
-9 -32 0
-9 33 0
-10 -34 0
-10 -35 0
-13 34 0
-13 -35 0
-16 -34 0
-16 35 0
-11 -36 0
-11 -37 0
-14 36 0
-14 -37 0
-17 -36 0
-17 37 0
-12 -38 0
-12 -39 0
-15 38 0
-15 -39 0
-18 -38 0
-18 39 0
-19 -40 0
-19 -41 0
-22 40 0
-22 -41 0
-25 -40 0
-25 41 0
-20 -42 0
-20 -43 0
-23 42 0
-23 -43 0
-26 -42 0
-26 43 0
-21 -44 0
-21 -45 0
-24 44 0
-24 -45 0
-27 -44 0
-27 45 0
-1 -46 0
-1 -47 0
-10 46 0
-10 -47 0
-19 -46 0
-19 47 0
-2 -48 0
-2 -49 0
-11 48 0
-11 -49 0
-20 -48 0
-20 49 0
-3 -50 0
-3 -51 0
-12 50 0
-12 -51 0
-21 -50 0
-21 51 0
-4 -52 0
-4 -53 0
-13 52 0
-13 -53 0
-22 -52 0
-22 53 0
-5 -54 0
-5 -55 0
-14 54 0
-14 -55 0
-23 -54 0
-23 55 0
-6 -56 0
-6 -57 0
-15 56 0
-15 -57 0
-24 -56 0
-24 57 0
-7 -58 0
-7 -59 0
-16 58 0
-16 -59 0
-25 -58 0
-25 59 0
-8 -60 0
-8 -61 0
-17 60 0
-17 -61 0
-26 -60 0
-26 61 0
-9 -62 0
-9 -63 0
-18 62 0
-18 -63 0
-27 -62 0
-27 63 0
